100
30
20
31
7
31
4
1
4
9
21
21
23
6
1
16
7
16
18
15
31
1
19
1
1
6
17
18
2
26
21
21
7
18
32
20
10
31
32
23
4
8
23
25
20
32
32
32
10
21
32
9
32
10
7
7
32
5
20
2
10
17
1
15
31
17
19
13
11
5
14
26
19
11
4
13
4
3
31
31
1
24
31
3
31
13
12
13
15
1
1
23
12
3
7
14
29
31
2
14
12
16